NAME: Random_50_4
ELLAPSED_TIME_(ms): 0
TOUR_SIZE: 998.61554
TOUR_SECTION
0
5
31
6
15
49
24
2
11
3
8
19
47
21
18
40
32
33
17
27
4
28
45
20
14
1
22
37
23
29
39
43
38
10
12
34
9
35
16
25
36
48
44
7
26
41
46
13
30
42
0
EOF
